13 78 10
0 1 111961863.00
0 2 111961863.00
0 3 111961863.00
0 4 111961863.00
0 5 111961863.00
0 6 111961863.00
0 7 694882.00
0 8 620660.00
0 9 111961863.00
0 10 111961863.00
0 11 111961863.00
0 12 111961863.00
1 2 7401454.00
1 3 111961863.00
1 4 111961863.00
1 5 111961863.00
1 6 111961863.00
1 7 5987541.00
1 8 111961863.00
1 9 111961863.00
1 10 2902654.00
1 11 111961863.00
1 12 111961863.00
2 3 111961863.00
2 4 111961863.00
2 5 111961863.00
2 6 111961863.00
2 7 111961863.00
2 8 111961863.00
2 9 111961863.00
2 10 111961863.00
2 11 440610.00
2 12 111961863.00
3 4 5130561.00
3 5 111961863.00
3 6 111961863.00
3 7 1425134.00
3 8 111961863.00
3 9 8612451.00
3 10 111961863.00
3 11 2178665.00
3 12 668791.00
4 5 111961863.00
4 6 6135812.00
4 7 111961863.00
4 8 111961863.00
4 9 4103202.00
4 10 111961863.00
4 11 111961863.00
4 12 111961863.00
5 6 3313254.00
5 7 111961863.00
5 8 111961863.00
5 9 111961863.00
5 10 111961863.00
5 11 111961863.00
5 12 1086852.00
6 7 111961863.00
6 8 111961863.00
6 9 111961863.00
6 10 111961863.00
6 11 111961863.00
6 12 111961863.00
7 8 111961863.00
7 9 111961863.00
7 10 111961863.00
7 11 111961863.00
7 12 111961863.00
8 9 111961863.00
8 10 707657.00
8 11 111961863.00
8 12 111961863.00
9 10 111961863.00
9 11 111961863.00
9 12 1302562.00
10 11 1606529.00
10 12 111961863.00
11 12 111961863.00
0
1
2
3
4
5
6
7
8
9
